(set-logic ALL)
(declare-fun i1 () Int)
(declare-fun it10 () Int)
(declare-fun it144 () Int)
(declare-fun it928 () Int)
(declare-fun it929 () Int)
(declare-fun it930 () Int)
(declare-fun it931 () Int)
(declare-fun it932 () Int)
(declare-fun it6 () Int)
(declare-fun it933 () Int)
(declare-fun it192 () Int)
(declare-fun it15 () Int)
(declare-fun it937 () Int)
(declare-fun it938 () Int)
(declare-fun it939 () Int)
(declare-fun it940 () Int)
(declare-fun it941 () Int)
(declare-fun it11 () Int)
(declare-fun it942 () Int)
(declare-fun it20 () Int)
(declare-fun it947 () Int)
(declare-fun it948 () Int)
(declare-fun it949 () Int)
(declare-fun it950 () Int)
(declare-fun it17 () Int)
(declare-fun it951 () Int)
(declare-fun it16 () Int)
(declare-fun it952 () Int)
(declare-fun it25 () Int)
(declare-fun it223 () Int)
(declare-fun it956 () Int)
(declare-fun it957 () Int)
(declare-fun it958 () Int)
(declare-fun it959 () Int)
(declare-fun it22 () Int)
(declare-fun it960 () Int)
(declare-fun it961 () Int)
(declare-fun it21 () Int)
(declare-fun it30 () Int)
(declare-fun it975 () Int)
(declare-fun it976 () Int)
(declare-fun it977 () Int)
(declare-fun it978 () Int)
(declare-fun it27 () Int)
(declare-fun it979 () Int)
(declare-fun it26 () Int)
(declare-fun it980 () Int)
(declare-fun it255 () Int)
(declare-fun it35 () Int)
(declare-fun it984 () Int)
(declare-fun it985 () Int)
(declare-fun it986 () Int)
(declare-fun it987 () Int)
(declare-fun it32 () Int)
(declare-fun it988 () Int)
(declare-fun it31 () Int)
(declare-fun it989 () Int)
(declare-fun it47 () Int)
(declare-fun it49 () Int)
(declare-fun it50 () Int)
(declare-fun it994 () Int)
(declare-fun it995 () Int)
(declare-fun it996 () Int)
(declare-fun it997 () Int)
(declare-fun it998 () Int)
(declare-fun it999 () Int)
(declare-fun it909 () Int)
(declare-fun it102 () Int)
(declare-fun it1100 () Int)
(declare-fun it1101 () Int)
(declare-fun it1102 () Int)
(declare-fun it1103 () Int)
(declare-fun it1104 () Int)
(declare-fun it1105 () Int)
(declare-fun it1045 () Int)
(declare-fun it1137 () Int)
(declare-fun it359 () Int)
(declare-fun it819 () Int)
(declare-fun it803 () Int)
(declare-fun it673 () Int)
(declare-fun it1139 () Int)
(declare-fun it1138 () Int)
(assert (and (> (+ it144 1) 0) (> it10 0) (= (+ i1 (- 13)) 0)))
(assert (= (+ it928 (- 2)) 0))
(assert (= (+ it929 (* it10 (- 1))) 0))
(assert (= (+ it930 (- 2)) 0))
(assert (= it931 0))
(assert (= (+ it932 (* it144 (- 1))) 0))
(assert (= (+ it933 (* it6 (- 1))) 0))
(assert (and (> it15 0)
     (> (+ it932 (* it931 (- 1))) 0)
     (>= (+ it928 (- 2)) 0)
     (> (+ it930 (- 1)) 0)
     (> (+ it932 1) 0)
     (>= (+ it929 (* it15 (- 1))) 0)
     (> (+ it932 (* it192 (- 1)) (* it931 (- 1)) 1) 0)
     (>= (+ (* it928 (- 1)) 2) 0)
     (> it929 0)
     (>= (+ it192 (- 1)) 0)))
(assert (= (+ it937 (* it928 (- 1))) 0))
(assert (= (+ (* it15 (- 1)) it938) 0))
(assert (= (+ (+ 0 it939) (* (exp 2 it192) (+ 0 it930) (+ 0 (- 1))))
   (+ 0 0)))
(assert (= (+ (* it192 (- 1)) it940 (* it931 (- 1))) 0))
(assert (= (+ (* it932 (- 1)) it941) 0))
(assert (= (+ it942 (* it11 (- 1))) 0))
(assert (and (> it20 0)
     (>= (+ it938 (* it20 (- 1))) 0)
     (> (+ it939 1) 0)
     (> it938 0)
     (<= (+ (* it940 (- 1)) it941) 0)
     (= (+ it937 (- 2)) 0)))
(assert (= (+ it947 (- 3)) 0))
(assert (= (+ it948 (* it20 (- 1))) 0))
(assert (= it949 0))
(assert (= (+ (* it939 (- 1)) it950) 0))
(assert (= (+ it951 (* it17 (- 1))) 0))
(assert (= (+ it952 (* it16 (- 1))) 0))
(assert (and (> it25 0)
     (> (+ (* it949 (- 1)) it950) 0)
     (> (+ it950 1) 0)
     (> (+ (* it949 (- 1)) (* it223 (- 1)) it950 1) 0)
     (> it948 0)
     (>= (+ it947 (- 3)) 0)
     (>= (+ it223 (- 1)) 0)
     (>= (+ (* it947 (- 1)) 3) 0)
     (>= (+ it948 (* it25 (- 1))) 0)
     (> (+ it949 1) 0)))
(assert (= (+ it956 (* it947 (- 1))) 0))
(assert (= (+ (* it25 (- 1)) it957) 0))
(assert (= (+ it958 (* it949 (- 1)) (* it223 (- 1))) 0))
(assert (= (+ it959 (* it950 (- 1))) 0))
(assert (= (+ it960 (* it22 (- 1))) 0))
(assert (= (+ (* it21 (- 1)) it961) 0))
(assert (and (> it30 0)
     (<= (+ it30 (* it957 (- 1))) 0)
     (<= (+ (* it958 (- 1)) it959) 0)
     (= (+ it956 (- 3)) 0)
     (> it957 0)
     (> it959 0)))
(assert (= (+ it975 (- 4)) 0))
(assert (= (+ it976 (* it30 (- 1))) 0))
(assert (= it977 0))
(assert (= (+ (* it959 (- 1)) it978) 0))
(assert (= (+ it979 (* it27 (- 1))) 0))
(assert (= (+ it980 (* it26 (- 1))) 0))
(assert (and (> it35 0)
     (> (+ (* it255 (- 1)) (* it977 (- 1)) it978 1) 0)
     (> (+ (* it977 (- 1)) it978) 0)
     (>= (+ it976 (* it35 (- 1))) 0)
     (>= (+ (* it975 (- 1)) 4) 0)
     (> (+ it978 (- 1)) 0)
     (> it976 0)
     (>= (+ it255 (- 1)) 0)
     (>= (+ it975 (- 4)) 0)))
(assert (= (+ it984 (* it975 (- 1))) 0))
(assert (= (+ (* it35 (- 1)) it985) 0))
(assert (= (+ it986 (* it255 (- 1)) (* it977 (- 1))) 0))
(assert (= (+ it987 (* it978 (- 1))) 0))
(assert (= (+ it988 (* it32 (- 1))) 0))
(assert (= (+ it989 (* it31 (- 1))) 0))
(assert (and (> it47 0)
     (> it49 0)
     (> it50 0)
     (<= (+ (* it986 (- 1)) it987) 0)
     (<= (+ it50 (* it985 (- 1))) 0)
     (<= (+ it49 (* it985 (- 1))) 0)
     (= (+ it984 (- 4)) 0)
     (> it985 0)
     (<= (+ it47 (* it985 (- 1))) 0)
     (> (+ it987 (- 1)) 0)))
(assert (= (+ it994 (- 6)) 0))
(assert (= (+ it995 (* it50 (- 1))) 0))
(assert (= (+ (* it49 (- 1)) it996) 0))
(assert (= it997 0))
(assert (= (+ it998 (* it47 (- 1))) 0))
(assert (= (+ it999 (* it987 (- 1))) 0))
(assert (let ((a!1 (> (+ (+ it999 (* it997 (- 1))) (- 1)) 0)))
  (and (> it102 0)
       (> (+ it999 (* it997 (- 1))) 0)
       (= (+ (* it994 (- 1)) 6) 0)
       (>= (+ (* it994 (- 1)) 6) 0)
       (>= (+ it996 (- 1)) 0)
       (> it998 0)
       (>= (+ it998 (- 1)) 0)
       (>= (+ it995 (* it102 (- 1))) 0)
       (> (+ it999 (- 1)) 0)
       (>= (+ it994 (- 6)) 0)
       a!1
       (>= (+ it998 (* it102 (- 1))) 0)
       (> it999 0)
       (> it995 0)
       (> (+ it997 1) 0)
       (>= (+ it995 (- 1)) 0)
       (>= (+ it996 (* it102 (- 1))) 0)
       (>= (+ it909 (- 1)) 0)
       (>= (+ it102 (- 1)) 0)
       (> (+ it999 (* it909 (- 1)) (* it997 (- 1))) 0)
       (> it996 0))))
(assert (= (+ it1100 (* it994 (- 1))) 0))
(assert (= (+ (* it102 (- 1)) it1101) 0))
(assert (= (+ it1102 (* it102 (- 1))) 0))
(assert (= (+ (* it909 (- 1)) it1103 (* it997 (- 1))) 0))
(assert (= (+ (* it102 (- 1)) it1104) 0))
(assert (= (+ it1105 (* it999 (- 1))) 0))
(assert (let ((a!1 (+ (* (* it1137 (+ it1139 (- 1)) it1045) (- 1)) it1105))
      (a!2 (* (+ it1139 (- 1))
              (+ (* it803 it819)
                 (* it1045 it359)
                 (* it673 it819)
                 (* it1137 it1045))))
      (a!5 (> (+ (+ (* it1045 it359) it1105)
                 (* it1137 (- 1))
                 (* it1103 (- 1))
                 (* it359 (- 1))
                 (* it1137 it1045))
              0))
      (a!6 (+ (+ (+ (* it1045 it359) it1105) (* it1103 (- 1)))
              (* it359 (- 1))
              (* it1137 it1045)))
      (a!7 (+ (* it1045 it359)
              (* (* it1137 (+ it1139 (- 1)) it1045) (- 1))
              it1105))
      (a!11 (+ it1105 (* it803 (- 1)) (* it673 (- 1)) (* it1103 (- 1))))
      (a!13 (+ (* (+ it1045 (- 1)) it1137) (* (* it1045 it359) (- 1))))
      (a!15 (+ (* (* (+ it1045 (- 1)) it1137) (- 1)) (* it1045 it359)))
      (a!22 (> (+ (+ it673 it1103)
                  (* (+ it819 (- 1)) it673)
                  (* it803 (+ it819 (- 1)))
                  1)
               0))
      (a!28 (+ (+ it1105 (* it673 (- 1)) (* it1103 (- 1)))
               (* (* (+ it819 (- 1)) it673) (- 1))
               (* (* it803 (+ it819 (- 1))) (- 1))))
      (a!31 (+ (+ (+ (* it1045 it359) it1105) (* it1103 (- 1)))
               (* it1137 it1045)))
      (a!32 (>= (+ (* (* it803 it819) (- 1))
                   (* (* it1045 it359) (- 1))
                   (* (* it673 it819) (- 1))
                   (* (* it1137 it1045) (- 1))
                   (- 1))
                0))
      (a!33 (+ (* (* it803 it819) (- 1)) (* (* it673 it819) (- 1))))
      (a!35 (>= (+ (+ it1105 (* it1103 (- 1))) (- 1)) 0))
      (a!36 (>= (+ (+ it1105 (* it1103 (- 1))) (- 2)) 0))
      (a!38 (> (+ it1103 (* (+ it819 (- 1)) it673) (* it803 (+ it819 (- 1))) 1)
               0))
      (a!41 (>= (+ (+ it1105 (* it673 (- 1)) (* it1103 (- 1))) (- 3)) 0))
      (a!47 (>= (+ (+ it1105 (* it673 (- 1)) (* it1103 (- 1))) (- 2)) 0))
      (a!48 (+ (+ (* (* it1045 it359) (- 1)) it1103)
               (* (* it1137 it1045) (- 1))
               1))
      (a!50 (+ (+ (* (* it1045 it359) (- 1)) it1103)
               it359
               (* (* it1137 it1045) (- 1))
               1))
      (a!51 (>= (+ (+ it1105 (* it673 (- 1)) (* it1103 (- 1))) (- 4)) 0))
      (a!54 (> (+ (+ it1105 (* it1103 (- 1))) (- 1)) 0))
      (a!57 (> (+ (+ (* it803 it819) (* it673 it819)) it1103 1) 0)))
(let ((a!3 (+ a!1
              a!2
              (* (* (+ it1139 (- 1)) it673 it819) (- 1))
              (* (* (+ it1139 (- 1)) it1045 it359) (- 1))
              (* it673 (- 1))
              (* it1103 (- 1))
              (* (* it803 (+ it1139 (- 1)) it819) (- 1))))
      (a!8 (+ a!7
              (* it1137 (- 1))
              a!2
              (* (* (+ it1139 (- 1)) it673 it819) (- 1))
              (* (* (+ it1139 (- 1)) it1045 it359) (- 1))
              (* it1103 (- 1))
              (* (* it803 (+ it1139 (- 1)) it819) (- 1))
              (* it359 (- 1))
              (* it1137 it1045)))
      (a!9 (+ a!7
              a!2
              (* (* (+ it1139 (- 1)) it673 it819) (- 1))
              (* (* (+ it1139 (- 1)) it1045 it359) (- 1))
              (* it1103 (- 1))
              (* (* it803 (+ it1139 (- 1)) it819) (- 1))))
      (a!12 (+ a!11
               (* (* (+ it819 (- 1)) it673) (- 1))
               (* (* it803 (+ it819 (- 1))) (- 1))))
      (a!14 (> (+ a!13
                  (* (+ it1045 (- 1)) it359)
                  it1103
                  (* (* it1137 it1045) (- 1))
                  1)
               0))
      (a!16 (+ a!15
               (* (* it1137 (+ it1139 (- 1)) it1045) (- 1))
               it1105
               (* (* (+ it1045 (- 1)) it359) (- 1))))
      (a!19 (+ (* it1137 (+ it1139 (- 1)) it1045)
               (* a!2 (- 1))
               (* (+ it1139 (- 1)) it673 it819)
               (* (+ it1139 (- 1)) it1045 it359)))
      (a!24 (+ a!15 it1105 (* (* (+ it1045 (- 1)) it359) (- 1))))
      (a!29 (+ a!1
               (* it803 (- 1))
               a!2
               (* (* (+ it1139 (- 1)) it673 it819) (- 1))
               (* (* (+ it1139 (- 1)) it1045 it359) (- 1))
               (* it673 (- 1))
               (* it1103 (- 1))
               (* (* it803 (+ it1139 (- 1)) it819) (- 1))))
      (a!34 (+ a!33
               (* (* it1137 (+ it1139 (- 1)) it1045) (- 1))
               it1105
               a!2
               (* (* (+ it1139 (- 1)) it673 it819) (- 1))
               (* (* (+ it1139 (- 1)) it1045 it359) (- 1))
               (* it1103 (- 1))
               (* (* it803 (+ it1139 (- 1)) it819) (- 1))))
      (a!42 (> (+ a!13
                  (* it1137 (+ it1139 (- 1)) it1045)
                  (* (+ it1045 (- 1)) it359)
                  (* a!2 (- 1))
                  (* (+ it1139 (- 1)) it673 it819)
                  (* (+ it1139 (- 1)) it1045 it359)
                  it1103
                  (* it803 (+ it1139 (- 1)) it819)
                  (* (* it1137 it1045) (- 1))
                  1)
               0))
      (a!44 (+ (* (* it1045 it359) (- 1))
               (* it1137 (+ it1139 (- 1)) it1045)
               (* a!2 (- 1))
               (* (+ it1139 (- 1)) it673 it819)
               (* (+ it1139 (- 1)) it1045 it359)
               it1103
               (* it803 (+ it1139 (- 1)) it819)))
      (a!46 (> (+ (+ a!33 it1105 (* it1103 (- 1))) (- 1)) 0))
      (a!49 (> (+ (+ (* it803 it819) (* it673 it819))
                  (* it1137 (+ it1139 (- 1)) it1045)
                  (* a!2 (- 1))
                  (* (+ it1139 (- 1)) it673 it819)
                  (* (+ it1139 (- 1)) it1045 it359)
                  it1103
                  (* it803 (+ it1139 (- 1)) it819)
                  1)
               0)))
(let ((a!4 (+ a!3
              (* (* (+ it819 (- 1)) it673) (- 1))
              (* (* it803 (+ it819 (- 1))) (- 1))))
      (a!10 (+ (+ a!9 (* it359 (- 1)) (* it1137 it1045)) (- 1)))
      (a!17 (+ a!16
               a!2
               (* (* (+ it1139 (- 1)) it673 it819) (- 1))
               (* (* (+ it1139 (- 1)) it1045 it359) (- 1))
               (* it1103 (- 1))
               (* (* it803 (+ it1139 (- 1)) it819) (- 1))))
      (a!20 (+ a!19 it673 it1103 (* it803 (+ it1139 (- 1)) it819)))
      (a!25 (+ (+ a!24 (* it1103 (- 1))) (* it359 (- 1)) (* it1137 it1045)))
      (a!27 (> (+ (+ a!9 (* it1137 it1045)) (- 1)) 0))
      (a!30 (+ a!29
               (* (* (+ it819 (- 1)) it673) (- 1))
               (* (* it803 (+ it819 (- 1))) (- 1))))
      (a!37 (+ (+ a!19 it1103 (* it803 (+ it1139 (- 1)) it819))
               (* (+ it819 (- 1)) it673)
               (* it803 (+ it819 (- 1)))
               1))
      (a!39 (+ (+ (+ a!24 (* it1103 (- 1))) (* it1137 it1045)) (- 1)))
      (a!40 (+ a!16
               (* it1137 (- 1))
               a!2
               (* (* (+ it1139 (- 1)) it673 it819) (- 1))
               (* (* (+ it1139 (- 1)) it1045 it359) (- 1))
               (* it1103 (- 1))
               (* (* it803 (+ it1139 (- 1)) it819) (- 1))
               (* it359 (- 1))
               (* it1137 it1045)))
      (a!43 (+ (+ a!19 it1103 (* it803 (+ it1139 (- 1)) it819)) 1))
      (a!45 (> (+ a!44 (* (* it1137 it1045) (- 1)) 1) 0))
      (a!52 (> (+ a!44 it359 (* (* it1137 it1045) (- 1)) 1) 0))
      (a!53 (>= (+ (+ a!9 (* it1137 it1045)) (- 2)) 0))
      (a!55 (>= (+ (+ a!9 (* it1137 it1045)) (- 1)) 0))
      (a!56 (+ (+ (+ a!24 (* it1103 (- 1))) (* it1137 it1045)) (- 2))))
(let ((a!18 (>= (+ (+ a!17 (* it1137 it1045)) (- 2)) 0))
      (a!21 (> (+ a!20 (* (+ it819 (- 1)) it673) (* it803 (+ it819 (- 1))) 1) 0))
      (a!23 (> (+ (+ a!17 (* it1137 it1045)) (- 1)) 0))
      (a!26 (+ (+ a!17 (* it359 (- 1)) (* it1137 it1045)) (- 1))))
  (and (>= (+ a!4 (- 4)) 0)
       (> (+ it1105 (- 1)) 0)
       a!5
       (>= (+ a!6 (- 1)) 0)
       (> a!8 0)
       (>= (+ it1102 (* it1138 (- 1))) 0)
       (> a!10 0)
       (> (+ it1105 (* it1103 (- 1))) 0)
       (>= (+ it1104 (- 1)) 0)
       (>= (+ a!12 (- 3)) 0)
       (> (+ it1105 (* it673 (- 1)) (* it1103 (- 1))) 0)
       a!14
       a!18
       a!21
       (>= (+ it1138 (- 1)) 0)
       a!22
       (>= (+ a!11 (- 1)) 0)
       (>= (+ a!3 (- 3)) 0)
       a!23
       (> a!25 0)
       (>= a!26 0)
       (>= (+ it1137 (- 1)) 0)
       (>= (+ it673 (- 1)) 0)
       (>= (+ (* it1100 (- 1)) 6) 0)
       a!27
       (>= (+ a!28 (- 2)) 0)
       (>= (+ a!30 (- 1)) 0)
       (> (+ a!17 (* it359 (- 1)) (* it1137 it1045)) 0)
       (>= (+ a!31 (- 2)) 0)
       (>= (+ it359 (- 1)) 0)
       a!32
       (> (+ a!34 (- 1)) 0)
       (>= (+ it803 (- 1)) 0)
       (> it1101 0)
       a!35
       (> a!4 0)
       a!36
       (> (+ a!6 (- 1)) 0)
       (> a!34 0)
       (>= (+ a!12 (- 2)) 0)
       (> (+ a!9 (* it359 (- 1)) (* it1137 it1045)) 0)
       (> a!37 0)
       (>= (+ a!3 (- 4)) 0)
       (> a!6 0)
       (>= (+ a!29 (- 1)) 0)
       (>= (+ (* it1138 (- 1)) it1101) 0)
       (> it1104 0)
       (> a!28 0)
       (> it1105 0)
       (> (+ a!24
             (* it1137 (- 1))
             (* it1103 (- 1))
             (* it359 (- 1))
             (* it1137 it1045))
          0)
       a!38
       (>= (+ it1101 (- 1)) 0)
       (> a!39 0)
       (>= (+ it1045 (- 1)) 0)
       (>= (+ a!30 (- 3)) 0)
       (> a!40 0)
       (> a!31 0)
       a!41
       (>= (+ a!28 (- 3)) 0)
       a!42
       (>= a!10 0)
       (> a!43 0)
       (> (+ a!20 1) 0)
       (>= (+ a!31 (- 1)) 0)
       (>= (+ it819 (- 1)) 0)
       (> (+ (+ it673 it1103) 1) 0)
       (>= (+ it1102 (- 1)) 0)
       a!45
       (> (+ a!33 it1105 (* it1103 (- 1))) 0)
       (>= (+ a!4 (- 3)) 0)
       (>= (+ a!25 (- 1)) 0)
       a!46
       (> (+ a!25 (- 1)) 0)
       (> (+ it1103 1) 0)
       (>= (+ it1100 (- 6)) 0)
       (>= (+ a!4 (- 2)) 0)
       (= (+ (* it1100 (- 1)) 6) 0)
       a!47
       (> a!48 0)
       (> a!26 0)
       (>= (+ a!29 (- 3)) 0)
       a!49
       (> a!50 0)
       (>= (+ (* it1138 (- 1)) it1104) 0)
       a!51
       (> (+ a!9 (* it1137 it1045)) 0)
       (>= (+ it1139 (- 1)) 0)
       (>= (+ a!11 (- 2)) 0)
       (> a!3 0)
       a!52
       (>= (+ a!11 (- 3)) 0)
       a!53
       a!54
       (>= (+ a!28 (- 4)) 0)
       (>= (+ a!3 (- 2)) 0)
       a!55
       (> it1138 0)
       (> it1102 0)
       (>= a!56 0)
       (>= (+ a!29 (- 2)) 0)
       (>= (+ a!12 (- 1)) 0)
       (> (+ it1105 1) 0)
       a!57
       (>= (+ a!30 (- 2)) 0)
       (> (+ a!31 (- 1)) 0)))))))
(check-sat)
